# Solution for model qis_1000_800_300
# Objective value = 2.9923699185214059e+02
x[0] 9.9999999207658652e-01
x[1] 1
x[2] 0
x[3] 7.85978452769024e-09
x[4] 1
x[5] 1
x[6] 0
x[7] 1
x[8] 1
x[9] 0
x[10] 1
x[11] 0
x[12] 1
x[13] 1
x[14] 1
x[15] 1
x[16] 1
x[17] 1
x[18] 1
x[19] 1
x[20] 1
x[21] 0
x[22] 1
x[23] 0
x[24] 0
x[25] 1
x[26] 1
x[27] 1.0000000258801942e+00
x[28] 7.8095431919889924e-09
x[29] 0
x[30] 6.6068954282117721e-09
x[31] 1
x[32] 0
x[33] 1
x[34] 0
x[35] 9.9999999899794045e-01
x[36] 1
x[37] 1
x[38] 0
x[39] 0
x[40] 1
x[41] 6.6259247880792951e-09
x[42] 1
x[43] 0
x[44] 1
x[45] 1
x[46] 0
x[47] 0
x[48] 0
x[49] 0
x[50] 1
x[51] 1
x[52] 0
x[53] 1
x[54] 0
x[55] 0
x[56] 1
x[57] 0
x[58] 1
x[59] 1
x[60] 1
x[61] 9.9999999827905373e-01
x[62] 0
x[63] 1
x[64] 1
x[65] 9.9999999899794112e-01
x[66] 0
x[67] 1
x[68] 1
x[69] 0
x[70] 0
x[71] 1
x[72] 1
x[73] 0
x[74] 1
x[75] 1
x[76] 9.9999996614420061e-01
x[77] 0
x[78] 9.9999999661238670e-01
x[79] 0
x[80] 1
x[81] 0
x[82] 0
x[83] 0
x[84] 1
x[85] 1
x[86] 0
x[87] 9.9999999879752910e-01
x[88] 1
x[89] 0
x[90] 3.3805508706045439e-08
x[91] 0
x[92] 0
x[93] 0
x[94] 0
x[95] 0.999999969477535
x[96] 0
x[97] 1
x[98] 9.9999999999999944e-01
x[99] 1
x[100] 1
x[101] 1
x[102] 0
x[103] 9.9999978703380832e-01
x[104] 1
x[105] 1
x[106] 0
x[107] 0
x[108] 0
x[109] 1
x[110] 9.3486314595822636e-10
x[111] 0
x[112] 1
x[113] 0
x[114] 0
x[115] 9.5167999535858636e-10
x[116] 0
x[117] 2.7080270736252736e-08
x[118] 9.9999999899794079e-01
x[119] 1
x[120] 0
x[121] 9.9999999999999944e-01
x[122] 0
x[123] 1
x[124] 0
x[125] 0
x[126] 1
x[127] 0
x[128] 1
x[129] 0
x[130] 0
x[131] 0
x[132] 0
x[133] 1
x[134] 0
x[135] 0
x[136] 0
x[137] 1.0000000338038768e+00
x[138] 0
x[139] 1
x[140] 9.9999999827905373e-01
x[141] 9.9999996614420161e-01
x[142] -1.8008968760696575e-08
x[143] 0
x[144] 9.9999998109124766e-01
x[145] 1.8850639159253472e-08
x[146] -2.5932382906594173e-08
x[147] 1
x[148] 1
x[149] 0
x[150] 0
x[151] -2.5932383735002844e-08
x[152] 0
x[153] 1
x[154] 1
x[155] 1
x[156] 1
x[157] 1
x[158] 1
x[159] 9.48248410411038e-10
x[160] 9.9999998442458116e-01
x[161] 1
x[162] 0
x[163] -1.8008968508574439e-08
x[164] 1
x[165] 0
x[166] 1
x[167] 0
x[168] 0
x[169] 0
x[170] 1
x[171] 1
x[172] 9.9999999013619745e-01
x[173] 1.8857313645623427e-08
x[174] 0
x[175] 0
x[176] 0
x[177] 0
x[178] 0
x[179] 0
x[180] 9.5196895321921080e-10
x[181] 0
x[182] 1
x[183] 1
x[184] 1
x[185] 1
x[186] 1
x[187] 1
x[188] 6.6768025910039649e-09
x[189] 0
x[190] 0
x[191] 1
x[192] 1
x[193] 0
x[194] 0
x[195] 1
x[196] 0
x[197] 1
x[198] 0
x[199] 4.65583917503331e-09
x[200] 1
x[201] 1
x[202] 0
x[203] 0
x[204] 0
x[205] 9.3165443953318735e-10
x[206] 7.4993456131289453e-09
x[207] 1
x[208] 0
x[209] 1
x[210] 1
x[211] 1
x[212] 1.6978312065194543e-08
x[213] 0
x[214] 1
x[215] 9.4738367290635e-10
x[216] 2.5845853066083444e-08
x[217] 0
x[218] 1
x[219] 0
x[220] 1
x[221] 0
x[222] 1
x[223] 1
x[224] 1
x[225] 1
x[226] 0
x[227] 0
x[228] 9.9999999478214230e-01
x[229] 0
x[230] 2.5700855738103908e-08
x[231] 1
x[232] 0
x[233] 0
x[234] 1
x[235] -1.8379848987420735e-08
x[236] 0
x[237] 1
x[238] 1
x[239] 0
x[240] 0
x[241] 0
x[242] 9.9999998442458138e-01
x[243] 9.9999999207658585e-01
x[244] 0
x[245] 1
x[246] 0
x[247] 0
x[248] 0
x[249] 1
x[250] 0
x[251] 0
x[252] 0
x[253] 0
x[254] 0
x[255] 0
x[256] 1
x[257] 1
x[258] 1
x[259] 0
x[260] 0
x[261] 8.8310615098091242e-10
x[262] 0
x[263] 2.5571343100249113e-08
x[264] 0
x[265] 1
x[266] 1
x[267] 1.1206290260922279e-09
x[268] 0
x[269] 1
x[270] 1
x[271] 1
x[272] 6.6832386452089411e-09
x[273] 0
x[274] 1
x[275] -1.6001864267371769e-08
x[276] 0
x[277] 1
x[278] 0.999999992076583
x[279] 0
x[280] 1
x[281] 9.9999999899794068e-01
x[282] 0
x[283] 0
x[284] 0
x[285] 1
x[286] 1.0000000014566526e+00
x[287] 0
x[288] 0
x[289] 0
x[290] 1
x[291] 0
x[292] 1.0000003752358566e+00
x[293] 2.7775954754020169e-07
x[294] 1
x[295] 0
x[296] 0
x[297] 9.9999999661238692e-01
x[298] 0
x[299] 1
x[300] 1
x[301] 1
x[302] 9.9999999540991635e-01
x[303] 1
x[304] 0
x[305] 1
x[306] 0
x[307] 1
x[308] 6.5395400875638275e-09
x[309] 0
x[310] 1
x[311] 1
x[312] 1
x[313] 1
x[314] -2.2599050462556912e-08
x[315] 0
x[316] 1
x[317] 1
x[318] 0
x[319] 1
x[320] 1
x[321] 0
x[322] 0
x[323] 0
x[324] 9.9999999999999767e-01
x[325] 0
x[326] 0
x[327] 0
x[328] 3.3766243973170871e-08
x[329] 1
x[330] -2.5932383098890448e-08
x[331] 0
x[332] 9.9999999812336560e-01
x[333] -2.2599050488052210e-08
x[334] 1
x[335] 0
x[336] 1
x[337] 0
x[338] 0
x[339] 9.52323015847798e-10
x[340] 1
x[341] 1
x[342] 0
x[343] 1
x[344] 0
x[345] 9.9999998485778374e-01
x[346] 1
x[347] 1
x[348] 0
x[349] 1.0000000188270690e+00
x[350] 9.9999998658391664e-01
x[351] 4.13863384223925e-10
x[352] 7.6956447665216390e-09
x[353] 1.8657163467062598e-08
x[354] 0
x[355] 0
x[356] 1
x[357] 1
x[358] 1
x[359] 0
x[360] 1
x[361] 9.3245897776995820e-10
x[362] 1
x[363] 1
x[364] 0
x[365] 1
x[366] 0
x[367] 9.9999999811547624e-01
x[368] 1
x[369] 1
x[370] 0
x[371] 1
x[372] 7.2713482741071805e-10
x[373] 1
x[374] 1
x[375] 1.0000000182983948e+00
x[376] 1
x[377] 1
x[378] 0
x[379] 0
x[380] 1
x[381] 1
x[382] 1
x[383] 1
x[384] 0
x[385] 0
x[386] 0
x[387] 0
x[388] 0
x[389] 9.9999997740094915e-01
x[390] 9.9999998109124777e-01
x[391] 9.9999999327905331e-01
x[392] 1.0000000258789143e+00
x[393] 1
x[394] 1
x[395] 0
x[396] 1.0000000258704009e+00
x[397] 1
x[398] 1
x[399] -2.5932384083360711e-08
x[400] 0
x[401] 1
x[402] 0
x[403] 0
x[404] 1
x[405] 0
x[406] 0
x[407] 1
x[408] 1
x[409] 0
x[410] 1
x[411] 0
x[412] 1
x[413] 3.3730908066268440e-08
x[414] 0
x[415] 9.9999960914601282e-01
x[416] 6.6791368581011277e-09
x[417] 0
x[418] 1
x[419] 9.9999999327905364e-01
x[420] 1
x[421] 0
x[422] -1.8379848884725726e-08
x[423] 0
x[424] 1
x[425] 1.1012319893681288e-09
x[426] 0
x[427] 6.6795656115201028e-09
x[428] 6.62050275409616e-09
x[429] 0
x[430] -2.5932382806106740e-08
x[431] 0
x[432] 9.9999999661238692e-01
x[433] 0
x[434] 9.6172209580061942e-10
x[435] 0
x[436] 1
x[437] 1
x[438] 1
x[439] 1
x[440] 1
x[441] 1
x[442] 0
x[443] 1
x[444] 0
x[445] -1.7906693036646372e-08
x[446] 1.0000000010405918e+00
x[447] 9.9999999327905353e-01
x[448] 1
x[449] 9.3489869007397776e-10
x[450] 0
x[451] 1
x[452] 0
x[453] 1.0000000258093769e+00
x[454] 0
x[455] 1
x[456] 0
x[457] 0
x[458] 0
x[459] 2.1283890077886268e-07
x[460] 0
x[461] 1
x[462] 0
x[463] 1
x[464] 0
x[465] 1
x[466] 1
x[467] 0
x[468] 1
x[469] 2.5762431784631158e-08
x[470] 1
x[471] 1
x[472] 9.2924724259208127e-10
x[473] 1.0000000173350998e+00
x[474] 1
x[475] 0
x[476] 1
x[477] 6.6725568164166158e-09
x[478] 0
x[479] 1
x[480] 0
x[481] 1
x[482] 0
x[483] 1
x[484] 0
x[485] 1.0000000188712950e+00
x[486] 1
x[487] 1
x[488] 1
x[489] 1
x[490] 0
x[491] 1
x[492] 1
x[493] 1
x[494] 0
x[495] 1
x[496] 0
x[497] -8.2260988153601091e-09
x[498] 1
x[499] 1
x[500] 0
x[501] 1
x[502] 0
x[503] 1
x[504] 1
x[505] 9.9999999707658593e-01
x[506] 1.8382693685790612e-08
x[507] 0
x[508] 0
x[509] 0
x[510] 0
x[511] 8.8531485124250574e-10
x[512] 1
x[513] 1
x[514] 1
x[515] 1
x[516] 0
x[517] 7.8376305563906280e-09
x[518] 1
x[519] 9.9999999879752921e-01
x[520] 0
x[521] 0
x[522] 0
x[523] 9.9999996874628472e-01
x[524] 9.9999999899794068e-01
x[525] 0
x[526] 1
x[527] 0
x[528] 0
x[529] 9.9999999540991635e-01
x[530] 1.0000000258811255e+00
x[531] 1
x[532] 1
x[533] 9.1852229240849767e-10
x[534] 9.9999997786514572e-01
x[535] 0
x[536] -2.5932383117460176e-08
x[537] 1
x[538] 0
x[539] 0
x[540] 1
x[541] 9.9999999899794068e-01
x[542] 0
x[543] 1
x[544] 1
x[545] 1
x[546] 1
x[547] 1
x[548] 1
x[549] 1
x[550] 1
x[551] 1
x[552] 7.8661577932445266e-09
x[553] 1
x[554] 1
x[555] 0
x[556] 1
x[557] -2.5932383098890448e-08
x[558] 5.1139364875510020e-09
x[559] 1
x[560] 0
x[561] 0
x[562] 6.6459544780347780e-09
x[563] 1
x[564] 1
x[565] 1.8814756420227188e-08
x[566] 9.9999999999999978e-01
x[567] 0
x[568] 1
x[569] 0
x[570] 0
x[571] 9.9999999899794068e-01
x[572] 9.9999999603829315e-01
x[573] 9.9999999546717555e-01
x[574] 0
x[575] -2.0504277764565870e-07
x[576] 0
x[577] 0
x[578] 1
x[579] 0
x[580] 1
x[581] 1
x[582] 0
x[583] 0
x[584] 1
x[585] 0
x[586] 9.9999999665653072e-01
x[587] 1.1499858466818756e-09
x[588] 0
x[589] 1
x[590] 0
x[591] 1
x[592] 1.0000000257207511e+00
x[593] 9.9999999899794090e-01
x[594] 1
x[595] 9.9999998109124688e-01
x[596] 9.9999998442458016e-01
x[597] 1
x[598] 0
x[599] 1
x[600] 0
x[601] 1
x[602] 0
x[603] 0
x[604] 1
x[605] 9.9999996926670087e-01
x[606] 0
x[607] 1.3537781062794703e-08
x[608] 1
x[609] 1
x[610] 0
x[611] 1
x[612] 0
x[613] 1
x[614] 1
x[615] 0
x[616] 6.6840460792423412e-09
x[617] 0
x[618] 0
x[619] 0
x[620] 1
x[621] 0
x[622] 1
x[623] 1
x[624] 1
x[625] 1
x[626] 0
x[627] 0
x[628] 1
x[629] 1
x[630] 1
x[631] 0
x[632] 1
x[633] 0
x[634] 0
x[635] 1
x[636] 0
x[637] 1
x[638] 0
x[639] 9.9999999899794090e-01
x[640] 0
x[641] 0
x[642] 0
x[643] 1
x[644] 1
x[645] 0
x[646] 3.9992129851527989e-07
x[647] 1
x[648] 0
x[649] 1
x[650] 1
x[651] 1
x[652] 1
x[653] 0
x[654] 0
x[655] 0
x[656] 9.9999997286514575e-01
x[657] 0
x[658] 0
x[659] 0
x[660] 1
x[661] 1
x[662] 1
x[663] 1
x[664] 7.7814927843593e-09
x[665] 1
x[666] 0
x[667] 0
x[668] 7.1215568159689775e-10
x[669] 1
x[670] 0
x[671] 0
x[672] 0
x[673] 0
x[674] 6.6602421931859087e-09
x[675] 1
x[676] 0
x[677] 1
x[678] 1
x[679] 1
x[680] 9.9999999569116693e-01
x[681] 0
x[682] 0
x[683] 1
x[684] 0
x[685] 0
x[686] 1
x[687] 1
x[688] 0
x[689] 1
x[690] 0
x[691] 0
x[692] 0
x[693] 0
x[694] 9.9999999250303162e-01
x[695] 0
x[696] 5.1748703819539193e-09
x[697] 0
x[698] 1
x[699] -2.2599050906646122e-08
x[700] 1
x[701] 3.8701454267476520e-09
x[702] 1
x[703] 0
x[704] 9.9999996614420172e-01
x[705] 1
x[706] 0
x[707] 0
x[708] 1
x[709] 1
x[710] 0
x[711] 1.8849649833061444e-08
x[712] 1.0000000180089688e+00
x[713] 0
x[714] 1
x[715] 0
x[716] 0
x[717] 0
x[718] 0
x[719] 9.41758118052894e-10
x[720] 1
x[721] 1
x[722] 0
x[723] 0
x[724] 1
x[725] 6.6829005603939726e-09
x[726] 1
x[727] 0
x[728] 0
x[729] 1.8861783204046893e-08
x[730] 1
x[731] 0
x[732] 1
x[733] 0
x[734] 0
x[735] 0
x[736] -1.7381192094955888e-08
x[737] 1
x[738] 0
x[739] 0
x[740] 0
x[741] 0
x[742] 0
x[743] 0
x[744] 1
x[745] 0
x[746] 0
x[747] 9.9999997740094948e-01
x[748] 1
x[749] 9.9999999552379015e-01
x[750] 0
x[751] 0
x[752] 1
x[753] 1
x[754] 1
x[755] 1
x[756] 0
x[757] 0
x[758] 1
x[759] 1
x[760] 0
x[761] 0
x[762] 0
x[763] 1.0000000336911130e+00
x[764] 0
x[765] 0
x[766] 1
x[767] 0
x[768] 1
x[769] 1.0000001700439913e+00
x[770] 1
x[771] 0
x[772] 1
x[773] 1
x[774] 1
x[775] 1
x[776] 0
x[777] 1
x[778] 0
x[779] 0
x[780] -2.5932383735002844e-08
x[781] 1
x[782] 0
x[783] 0
x[784] 1
x[785] 1.0000000258346020e+00
x[786] 9.9999998447601968e-01
x[787] 1
x[788] 0
x[789] -2.5932383795890246e-08
x[790] 1
x[791] 3.8132681028249259e-08
x[792] 0
x[793] 0
x[794] 1
x[795] 0
x[796] 1
x[797] 0
x[798] 1
x[799] 0
x[800] 0
x[801] 9.9999996614420161e-01
x[802] 0
x[803] 1
x[804] 0
x[805] 0
x[806] 0
x[807] 0
x[808] 1
x[809] 0
x[810] 1.0000000258718786e+00
x[811] 0
x[812] 0
x[813] 0
x[814] 0
x[815] 0
x[816] 0
x[817] 0
x[818] 1
x[819] 1
x[820] 0
x[821] 1.1615238850860228e-09
x[822] 1.0000000258912360e+00
x[823] 4.4636800296915624e-10
x[824] 0
x[825] 1
x[826] 1
x[827] 1
x[828] 1
x[829] 0
x[830] 1
x[831] 6.5688488208723069e-09
x[832] 1
x[833] 0
x[834] 1
x[835] 1
x[836] 0
x[837] 0
x[838] 1
x[839] 9.9999999661238714e-01
x[840] 1.0000000186179148e+00
x[841] 0
x[842] 1
x[843] 1
x[844] 1
x[845] 7.8817865539917830e-09
x[846] 0
x[847] 1
x[848] -6.0783526415300244e-09
x[849] 3.3814225463076892e-08
x[850] 1
x[851] 1
x[852] 1
x[853] 0
x[854] 1
x[855] 3.3810158503420434e-08
x[856] 0
x[857] 9.9999999665419648e-01
x[858] 1
x[859] 1
x[860] 1
x[861] 0
x[862] 1
x[863] 1
x[864] 0
x[865] 9.0444648015537590e-10
x[866] 0
x[867] 1
x[868] 0
x[869] 9.9999999999999978e-01
x[870] 0
x[871] 0
x[872] 0
x[873] 0
x[874] 0
x[875] 0
x[876] 0
x[877] 1
x[878] 1
x[879] 1
x[880] 6.5133948412488273e-09
x[881] 1
x[882] 0
x[883] 9.2062768209027709e-10
x[884] 0
x[885] 0
x[886] 1
x[887] 0
x[888] 0
x[889] 1
x[890] 0
x[891] 0
x[892] 1
x[893] 0
x[894] 1
x[895] 7.8257474936838017e-09
x[896] 9.62020761129816e-10
x[897] 1
x[898] 0
x[899] 0
x[900] 1
x[901] 1
x[902] 1
x[903] 1
x[904] 1.0000000270807363e+00
x[905] 0
x[906] 1.00000002585191
x[907] 1
x[908] 7.8524629652536366e-09
x[909] 0
x[910] 0
x[911] 0
x[912] 1
x[913] 0
x[914] 0
x[915] 0
x[916] 1
x[917] 0
x[918] 3.3733343881860251e-08
x[919] 1
x[920] 1
x[921] 1
x[922] 1
x[923] 5.3430447130824028e-09
x[924] 1
x[925] 1
x[926] 0
x[927] 0
x[928] 1.8843727657647007e-08
x[929] 0
x[930] 0
x[931] 0
x[932] 1
x[933] 0
x[934] 1
x[935] 1
x[936] 0
x[937] 1
x[938] 1.8852973523005825e-08
x[939] 0
x[940] 0
x[941] 1
x[942] 0
x[943] 1.0000000258754815e+00
x[944] 1
x[945] 8.9670171549167037e-10
x[946] 1
x[947] 0
x[948] 0
x[949] 0
x[950] 1
x[951] 1
x[952] 1
x[953] 0
x[954] 1
x[955] 1
x[956] 1
x[957] 1
x[958] 0
x[959] 1
x[960] 0
x[961] 0
x[962] 1
x[963] 0
x[964] 0
x[965] 1
x[966] 1
x[967] 1
x[968] 2.6956537915396228e-08
x[969] 0
x[970] 0
x[971] 9.4431937745337273e-10
x[972] 0
x[973] 0
x[974] 9.9999997745313962e-01
x[975] 1
x[976] 0
x[977] 9.9999999327905376e-01
x[978] 1
x[979] 0
x[980] 0
x[981] 0
x[982] 0
x[983] 0
x[984] 1
x[985] 9.9999999899794068e-01
x[986] 0.999999992076586
x[987] 1
x[988] 0
x[989] 0
x[990] 1
x[991] 0
x[992] 1
x[993] 0
x[994] 0
x[995] 9.9999997535903051e-01
x[996] 0
x[997] 1.4398658425697067e-09
x[998] 0
x[999] 1
